Rodando pra 1h

Optimize a model with 88 rows, 93 columns and 887 nonzeros
Coefficient statistics:
  Matrix range    [1e+00, 1e+04]
  Objective range [5e-01, 5e-01]
  Bounds range    [1e+00, 1e+04]
  RHS range       [1e+00, 1e+04]
Found heuristic solution: objective 418
Presolve removed 18 rows and 3 columns
Presolve time: 0.00s
Presolved: 70 rows, 90 columns, 501 nonzeros
Variable types: 42 continuous, 48 integer (46 binary)

Root relaxation: objective 2.835580e+01, 57 iterations, 0.00 seconds

    Nodes    |    Current Node    |     Objective Bounds      |     Work
 Expl Unexpl |  Obj  Depth IntInf | Incumbent    BestBd   Gap | It/Node Time

     0     0   28.35580    0   21  418.00000   28.35580  93.2%     -    0s
H    0     0                     341.5000000   28.35580  91.7%     -    0s
H    0     0                     326.0000000   28.35580  91.3%     -    0s
H    0     0                     321.5000000   28.35580  91.2%     -    0s
     0     0   77.39316    0   28  321.50000   77.39316  75.9%     -    0s
     0     0   77.47617    0   28  321.50000   77.47617  75.9%     -    0s
     0     0   91.45312    0   29  321.50000   91.45312  71.6%     -    0s
H    0     0                     311.0000000   91.45312  70.6%     -    0s
     0     0   93.89257    0   28  311.00000   93.89257  69.8%     -    0s
     0     0  104.40558    0   28  311.00000  104.40558  66.4%     -    0s
H    0     0                     297.0000000  104.40558  64.8%     -    0s
     0     0  104.53849    0   28  297.00000  104.53849  64.8%     -    0s
     0     0  107.93582    0   28  297.00000  107.93582  63.7%     -    0s
     0     0  108.11736    0   29  297.00000  108.11736  63.6%     -    0s
     0     0  108.42577    0   31  297.00000  108.42577  63.5%     -    0s
     0     0  108.42577    0   31  297.00000  108.42577  63.5%     -    0s
     0     2  108.42721    0   31  297.00000  108.42721  63.5%     -    0s
H  108    74                     291.5000000  110.88021  62.0%  10.1    0s
*  119    84              11     287.5000000  110.88021  61.4%  10.1    0s
H  439   197                     279.0000000  116.23417  58.3%   6.7    0s
* 5390    52              23     277.0000000  271.75000  1.90%   7.1    1s

Cutting planes:
  Gomory: 4
  MIR: 45
  Flow cover: 63
  Flow path: 10
  Zero half: 2
  Network: 13

Explored 5447 nodes (39003 simplex iterations) in 1.91 seconds
Thread count was 1 (of 4 available processors)

Optimal solution found (tolerance 1.00e-04)
Best objective 2.770000000000e+02, best bound 2.770000000000e+02, gap 0.0%
Tempo: 1.9 segundos

0 2 21 44 40 60 42 
0 6 56 46 61 23 38 
1 5 43 37 55 44 31 
2 4 81 26 22 31 12 
3 6 98 15 10 5 21 
5 6 15 72 44 77 79 
(314 240 232 240 223 )

